c A SAT instance generated from a 9-CNF formula that had 30 clauses and 10 variables
p cnf 10 30
8 -4 -9 -1 3 5 -7 -2 10 0
-8 3 -2 -4 1 10 7 6 5 0
4 8 -3 -1 -9 -10 -2 6 -5 0
-4 5 10 -3 -8 -1 -2 -9 6 0
-8 -7 -10 -5 2 -1 -6 3 -9 0
7 -2 10 9 -4 3 5 -1 -6 0
9 3 7 -6 8 -2 10 -1 -5 0
-3 6 2 -4 -10 9 8 7 -5 0
-9 -7 -3 5 1 -8 10 -4 2 0
6 -2 7 8 -3 10 4 9 -1 0
1 -7 -8 4 2 -3 6 -5 10 0
-5 -10 -2 8 -4 7 9 -6 -1 0
6 7 -4 -9 2 -8 1 -10 -5 0
8 -6 -4 9 1 2 10 3 7 0
-10 2 -5 4 -9 -6 -1 -3 7 0
6 4 1 7 -8 -9 3 10 5 0
6 5 -8 4 -10 3 9 -1 -2 0
2 6 5 4 -3 -9 10 -8 -1 0
-9 -3 -2 -4 5 -10 1 -6 -7 0
6 3 7 2 10 -1 8 -4 9 0
3 -1 -8 6 10 -9 -7 -2 -5 0
7 -3 -6 -10 -4 5 -8 1 2 0
4 8 -3 10 -2 5 7 -1 -6 0
5 -2 6 -7 8 -9 4 -1 10 0
2 1 -8 9 4 -7 6 -10 -5 0
-7 5 1 -4 6 -3 -10 2 -9 0
-4 5 7 -6 2 -3 -10 -9 8 0
-5 -7 -6 4 -10 3 2 -9 -1 0
-2 -4 -8 10 9 -1 3 -5 -6 0
2 -7 -5 -10 -6 3 4 9 -8 0
